p cnf 102 355
c p weight -11 1 0
c p weight 11 -1 0
c p weight 15 6.12323399573676603586882014729198302312846062338790031898128063403419218957424163818359375E-17 0
c p weight -15 1 0
c p weight 16 1 0
c p weight -16 1 0
c p weight -13 1 0
c p weight 13 -1 0
c p weight -17 1 0
c p weight 17 -1 0
c p weight -19 1 0
c p weight 19 -1 0
c p weight -20 1 0
c p weight 20 -1 0
c p weight 24 6.12323399573676603586882014729198302312846062338790031898128063403419218957424163818359375E-17 0
c p weight -24 1 0
c p weight 25 1 0
c p weight -25 1 0
c p weight -22 1 0
c p weight 22 -1 0
c p weight -26 1 0
c p weight 26 -1 0
c p weight -28 1 0
c p weight 28 -1 0
c p weight -29 1 0
c p weight 29 -1 0
c p weight 33 6.12323399573676603586882014729198302312846062338790031898128063403419218957424163818359375E-17 0
c p weight -33 1 0
c p weight 34 1 0
c p weight -34 1 0
c p weight -31 1 0
c p weight 31 -1 0
c p weight -35 1 0
c p weight 35 -1 0
c p weight -37 1 0
c p weight 37 -1 0
c p weight 41 6.12323399573676603586882014729198302312846062338790031898128063403419218957424163818359375E-17 0
c p weight -41 1 0
c p weight 42 1 0
c p weight -42 1 0
c p weight -39 1 0
c p weight 39 -1 0
c p weight -43 1 0
c p weight 43 -1 0
c p weight -45 1 0
c p weight 45 -1 0
c p weight -46 1 0
c p weight 46 -1 0
c p weight -47 1 0
c p weight 47 -1 0
c p weight 51 6.12323399573676603586882014729198302312846062338790031898128063403419218957424163818359375E-17 0
c p weight -51 1 0
c p weight 52 1 0
c p weight -52 1 0
c p weight -49 1 0
c p weight 49 -1 0
c p weight -53 1 0
c p weight 53 -1 0
c p weight -55 1 0
c p weight 55 -1 0
c p weight -58 1 0
c p weight 58 -1 0
c p weight -59 1 0
c p weight 59 -1 0
c p weight 63 6.12323399573676603586882014729198302312846062338790031898128063403419218957424163818359375E-17 0
c p weight -63 1 0
c p weight 64 1 0
c p weight -64 1 0
c p weight -61 1 0
c p weight 61 -1 0
c p weight -65 1 0
c p weight 65 -1 0
c p weight -67 1 0
c p weight 67 -1 0
c p weight -70 1 0
c p weight 70 -1 0
c p weight -71 1 0
c p weight 71 -1 0
c p weight 75 6.12323399573676603586882014729198302312846062338790031898128063403419218957424163818359375E-17 0
c p weight -75 1 0
c p weight 76 1 0
c p weight -76 1 0
c p weight -73 1 0
c p weight 73 -1 0
c p weight -77 1 0
c p weight 77 -1 0
c p weight -79 1 0
c p weight 79 -1 0
c p weight -82 1 0
c p weight 82 -1 0
c p weight 86 6.12323399573676603586882014729198302312846062338790031898128063403419218957424163818359375E-17 0
c p weight -86 1 0
c p weight 87 1 0
c p weight -87 1 0
c p weight -84 1 0
c p weight 84 -1 0
c p weight -88 1 0
c p weight 88 -1 0
c p weight -90 1 0
c p weight 90 -1 0
c p weight -93 1 0
c p weight 93 -1 0
c p weight -94 1 0
c p weight 94 -1 0
c p weight 98 6.12323399573676603586882014729198302312846062338790031898128063403419218957424163818359375E-17 0
c p weight -98 1 0
c p weight 99 1 0
c p weight -99 1 0
c p weight -96 1 0
c p weight 96 -1 0
c p weight -100 1 0
c p weight 100 -1 0
c p weight 102 0.5 0
c p weight -102 1 0
102 0
-9 0
-7 0
-5 0
-3 0
-1 0
-11 1 0
-11 2 0
11 -1 -2 0
12 1 -2 0
12 -1 2 0
-12 1 2 0
-12 -1 -2 0
-13 14 0
-13 12 0
-13 -1 0
13 -14 1 -12 0
14 -1 12 0
-14 1 12 0
-15 12 0
14 -15 -1 0
-14 -15 1 0
14 15 1 -12 0
-14 15 -1 -12 0
-16 12 0
14 -16 1 0
-14 -16 -1 0
14 16 -1 -12 0
-14 16 1 -12 0
-17 14 0
-17 12 0
17 -14 -12 0
18 14 -12 0
18 -14 12 0
-18 14 12 0
-18 -14 -12 0
19 -18 0
-19 18 0
-20 3 0
-20 4 0
20 -3 -4 0
21 3 -4 0
21 -3 4 0
-21 3 4 0
-21 -3 -4 0
-22 23 0
-22 21 0
-22 -3 0
22 -23 3 -21 0
23 -3 21 0
-23 3 21 0
-24 21 0
23 -24 -3 0
-23 -24 3 0
23 24 3 -21 0
-23 24 -3 -21 0
-25 21 0
23 -25 3 0
-23 -25 -3 0
23 25 -3 -21 0
-23 25 3 -21 0
-26 23 0
-26 21 0
26 -23 -21 0
27 23 -21 0
27 -23 21 0
-27 23 21 0
-27 -23 -21 0
28 -27 0
-28 27 0
-29 5 0
-29 6 0
29 -5 -6 0
30 5 -6 0
30 -5 6 0
-30 5 6 0
-30 -5 -6 0
-31 32 0
-31 30 0
-31 -5 0
31 -32 5 -30 0
32 -5 30 0
-32 5 30 0
-33 30 0
32 -33 -5 0
-32 -33 5 0
32 33 5 -30 0
-32 33 -5 -30 0
-34 30 0
32 -34 5 0
-32 -34 -5 0
32 34 -5 -30 0
-32 34 5 -30 0
-35 32 0
-35 30 0
35 -32 -30 0
36 32 -30 0
36 -32 30 0
-36 32 30 0
-36 -32 -30 0
-37 7 0
-37 8 0
37 -7 -8 0
38 7 -8 0
38 -7 8 0
-38 7 8 0
-38 -7 -8 0
-39 40 0
-39 38 0
-39 -7 0
39 -40 7 -38 0
40 -7 38 0
-40 7 38 0
-41 38 0
40 -41 -7 0
-40 -41 7 0
40 41 7 -38 0
-40 41 -7 -38 0
-42 38 0
40 -42 7 0
-40 -42 -7 0
40 42 -7 -38 0
-40 42 7 -38 0
-43 40 0
-43 38 0
43 -40 -38 0
44 40 -38 0
44 -40 38 0
-44 40 38 0
-44 -40 -38 0
45 -44 0
-45 44 0
46 -10 0
-46 10 0
-47 9 0
-47 10 0
47 -9 -10 0
48 9 -10 0
48 -9 10 0
-48 9 10 0
-48 -9 -10 0
-49 50 0
-49 48 0
-49 -9 0
49 -50 9 -48 0
50 -9 48 0
-50 9 48 0
-51 48 0
50 -51 -9 0
-50 -51 9 0
50 51 9 -48 0
-50 51 -9 -48 0
-52 48 0
50 -52 9 0
-50 -52 -9 0
50 52 -9 -48 0
-50 52 9 -48 0
-53 50 0
-53 48 0
53 -50 -48 0
54 50 -48 0
54 -50 48 0
-54 50 48 0
-54 -50 -48 0
-55 14 0
-55 54 0
-55 50 -18 0
-55 -50 18 0
55 -14 50 18 -54 0
55 -14 -50 -18 -54 0
57 14 -50 0
57 -14 50 0
-57 14 50 0
-57 -14 -50 0
56 18 -54 0
56 -18 54 0
-56 18 54 0
-56 -18 -54 0
58 -56 0
-58 56 0
-59 14 0
-59 56 0
59 -14 -56 0
60 14 -56 0
60 -14 56 0
-60 14 56 0
-60 -14 -56 0
-61 62 0
-61 60 0
-61 -14 0
61 -62 14 -60 0
62 -14 60 0
-62 14 60 0
-63 60 0
62 -63 -14 0
-62 -63 14 0
62 63 14 -60 0
-62 63 -14 -60 0
-64 60 0
62 -64 14 0
-62 -64 -14 0
62 64 -14 -60 0
-62 64 14 -60 0
-65 62 0
-65 60 0
65 -62 -60 0
66 62 -60 0
66 -62 60 0
-66 62 60 0
-66 -62 -60 0
-67 23 0
-67 54 0
-67 57 -27 0
-67 -57 27 0
67 -23 57 27 -54 0
67 -23 -57 -27 -54 0
69 23 -57 0
69 -23 57 0
-69 23 57 0
-69 -23 -57 0
68 27 -54 0
68 -27 54 0
-68 27 54 0
-68 -27 -54 0
70 -68 0
-70 68 0
-71 23 0
-71 68 0
71 -23 -68 0
72 23 -68 0
72 -23 68 0
-72 23 68 0
-72 -23 -68 0
-73 74 0
-73 72 0
-73 -23 0
73 -74 23 -72 0
74 -23 72 0
-74 23 72 0
-75 72 0
74 -75 -23 0
-74 -75 23 0
74 75 23 -72 0
-74 75 -23 -72 0
-76 72 0
74 -76 23 0
-74 -76 -23 0
74 76 -23 -72 0
-74 76 23 -72 0
-77 74 0
-77 72 0
77 -74 -72 0
78 74 -72 0
78 -74 72 0
-78 74 72 0
-78 -74 -72 0
-79 32 0
-79 54 0
-79 69 -36 0
-79 -69 36 0
79 -32 69 36 -54 0
79 -32 -69 -36 -54 0
81 32 -69 0
81 -32 69 0
-81 32 69 0
-81 -32 -69 0
80 36 -54 0
80 -36 54 0
-80 36 54 0
-80 -36 -54 0
-82 32 0
-82 80 0
82 -32 -80 0
83 32 -80 0
83 -32 80 0
-83 32 80 0
-83 -32 -80 0
-84 85 0
-84 83 0
-84 -32 0
84 -85 32 -83 0
85 -32 83 0
-85 32 83 0
-86 83 0
85 -86 -32 0
-85 -86 32 0
85 86 32 -83 0
-85 86 -32 -83 0
-87 83 0
85 -87 32 0
-85 -87 -32 0
85 87 -32 -83 0
-85 87 32 -83 0
-88 85 0
-88 83 0
88 -85 -83 0
89 85 -83 0
89 -85 83 0
-89 85 83 0
-89 -85 -83 0
-90 40 0
-90 54 0
-90 81 -44 0
-90 -81 44 0
90 -40 81 44 -54 0
90 -40 -81 -44 -54 0
92 40 -81 0
92 -40 81 0
-92 40 81 0
-92 -40 -81 0
91 44 -54 0
91 -44 54 0
-91 44 54 0
-91 -44 -54 0
93 -91 0
-93 91 0
-94 40 0
-94 91 0
94 -40 -91 0
95 40 -91 0
95 -40 91 0
-95 40 91 0
-95 -40 -91 0
-96 97 0
-96 95 0
-96 -40 0
96 -97 40 -95 0
97 -40 95 0
-97 40 95 0
-98 95 0
97 -98 -40 0
-97 -98 40 0
97 98 40 -95 0
-97 98 -40 -95 0
-99 95 0
97 -99 40 0
-97 -99 -40 0
97 99 -40 -95 0
-97 99 40 -95 0
-100 97 0
-100 95 0
100 -97 -95 0
101 97 -95 0
101 -97 95 0
-101 97 95 0
-101 -97 -95 0
-62 0
-74 0
-78 0
-85 0
-89 0
-97 0
-101 0
-92 0
-54 0
